B N C F O                               
   1.00000000000000     
     5.0243667044670000   -8.7024973729579997    0.0000000000000000
     5.0243667044670000    8.7024973729579997    0.0000000000000000
     0.0000000000000000    0.0000000000000000   35.1146643855649998
   B    N    C    F    O 
    16    16     3     5     2
Selective dynamics
Direct
  0.1665492215200199  0.0832425600960617  0.5012412021534878   T   T   T
  0.1665487834782685  0.3332142893471091  0.5012628088680919   T   T   T
  0.1665530401740339  0.5832443846081594  0.5012773071626485   T   T   T
  0.1665657202470970  0.8332320329821797  0.5012326048467516   T   T   T
  0.4165807156467994  0.0832385313495875  0.5010757959772919   T   T   T
  0.4165247171813412  0.3332179009000323  0.5010184859178214   T   T   T
  0.4165794487639042  0.5832349777813954  0.5010998727537064   T   T   T
  0.4165753503631303  0.8332808233827151  0.5009823776764670   T   T   T
  0.6666226670642428  0.0832629040193048  0.5011172995987506   T   T   T
  0.6666417080452787  0.3332185436233965  0.5010575255724361   T   T   T
  0.6666426696813794  0.5833035789053417  0.5011255836798741   T   T   T
  0.6666337160171718  0.8332944478015945  0.5011293908853748   T   T   T
  0.9165844808476109  0.0832465815911853  0.5013195029831425   T   T   T
  0.9165796186800361  0.3332252791369443  0.5013025702781901   T   T   T
  0.9166072246946895  0.5832541085892273  0.5012632066194337   T   T   T
  0.9165850698719268  0.8332630510623151  0.5012851678442689   T   T   T
  0.0832477423665028  0.1665795938196143  0.5013347595850539   T   T   T
  0.0832563021707724  0.4165823888878200  0.5013466537094996   T   T   T
  0.0832521413496413  0.6665762720688955  0.5013184892493342   T   T   T
  0.0832482736717910  0.9165814716752061  0.5012955797278703   T   T   T
  0.3332626340486208  0.1665902973300660  0.5011450599217445   T   T   T
  0.3332593604157869  0.4165879941828599  0.5011553390286700   T   T   T
  0.3332807295968934  0.6666055477084161  0.5011867786019760   T   T   T
  0.3332530146431380  0.9165923312098708  0.5011231276486826   T   T   T
  0.5832504745643603  0.1665816107624372  0.5011147776535066   T   T   T
  0.5832524714058928  0.4165682235703678  0.5011164941717811   T   T   T
  0.5832498800970107  0.6665871239372571  0.5011919791008472   T   T   T
  0.5832327008269820  0.9165717823423247  0.5010014177477043   T   T   T
  0.8332452485875721  0.1665733066327470  0.5012980284423302   T   T   T
  0.8332481479126088  0.4165833487857306  0.5012505975865568   T   T   T
  0.8332505160917858  0.6665746917420712  0.5012574567453857   T   T   T
  0.8332427678309489  0.9165839653519198  0.5013052117034388   T   T   T
  0.5645426912430833  0.4408451884146227  0.6596925924860474   T   T   T
  0.5475092021245815  0.3683279468088378  0.6195759777407238   T   T   T
  0.4700624371019440  0.7973985128452372  0.6066229906307804   T   T   T
  0.6994219101679344  0.5689488400989074  0.6612620524637564   T   T   T
  0.5564738073244556  0.3423354577298871  0.6858988704276971   T   T   T
  0.4509182830166558  0.4703658365249062  0.6642402665512871   T   T   T
  0.6620538236116171  0.3935214214730020  0.6007657805789259   T   T   T
  0.4189003225210634  0.2867846001899770  0.6052903410460945   T   T   T
  0.6010346219511145  0.8771660275383234  0.6013211784758750   T   T   T
  0.3389674677161933  0.7172430193131739  0.6116402109587582   T   T   T
 
  0.00000000E+00  0.00000000E+00  0.00000000E+00
  0.00000000E+00  0.00000000E+00  0.00000000E+00
  0.00000000E+00  0.00000000E+00  0.00000000E+00
  0.00000000E+00  0.00000000E+00  0.00000000E+00
  0.00000000E+00  0.00000000E+00  0.00000000E+00
  0.00000000E+00  0.00000000E+00  0.00000000E+00
  0.00000000E+00  0.00000000E+00  0.00000000E+00
  0.00000000E+00  0.00000000E+00  0.00000000E+00
  0.00000000E+00  0.00000000E+00  0.00000000E+00
  0.00000000E+00  0.00000000E+00  0.00000000E+00
  0.00000000E+00  0.00000000E+00  0.00000000E+00
  0.00000000E+00  0.00000000E+00  0.00000000E+00
  0.00000000E+00  0.00000000E+00  0.00000000E+00
  0.00000000E+00  0.00000000E+00  0.00000000E+00
  0.00000000E+00  0.00000000E+00  0.00000000E+00
  0.00000000E+00  0.00000000E+00  0.00000000E+00
  0.00000000E+00  0.00000000E+00  0.00000000E+00
  0.00000000E+00  0.00000000E+00  0.00000000E+00
  0.00000000E+00  0.00000000E+00  0.00000000E+00
  0.00000000E+00  0.00000000E+00  0.00000000E+00
  0.00000000E+00  0.00000000E+00  0.00000000E+00
  0.00000000E+00  0.00000000E+00  0.00000000E+00
  0.00000000E+00  0.00000000E+00  0.00000000E+00
  0.00000000E+00  0.00000000E+00  0.00000000E+00
  0.00000000E+00  0.00000000E+00  0.00000000E+00
  0.00000000E+00  0.00000000E+00  0.00000000E+00
  0.00000000E+00  0.00000000E+00  0.00000000E+00
  0.00000000E+00  0.00000000E+00  0.00000000E+00
  0.00000000E+00  0.00000000E+00  0.00000000E+00
  0.00000000E+00  0.00000000E+00  0.00000000E+00
  0.00000000E+00  0.00000000E+00  0.00000000E+00
  0.00000000E+00  0.00000000E+00  0.00000000E+00
  0.00000000E+00  0.00000000E+00  0.00000000E+00
  0.00000000E+00  0.00000000E+00  0.00000000E+00
  0.00000000E+00  0.00000000E+00  0.00000000E+00
  0.00000000E+00  0.00000000E+00  0.00000000E+00
  0.00000000E+00  0.00000000E+00  0.00000000E+00
  0.00000000E+00  0.00000000E+00  0.00000000E+00
  0.00000000E+00  0.00000000E+00  0.00000000E+00
  0.00000000E+00  0.00000000E+00  0.00000000E+00
  0.00000000E+00  0.00000000E+00  0.00000000E+00
  0.00000000E+00  0.00000000E+00  0.00000000E+00
